NPROCS=0
This instance is clustered!
Gurobi Optimizer version 9.0.0 build v9.0.0rc2 (linux64)
Optimize a model with 26 rows, 170 columns and 338 nonzeros
Model fingerprint: 0x0ea056d6
Variable types: 1 continuous, 169 integer (169 binary)
Coefficient statistics:
  Matrix range     [1e+00, 1e+00]
  Objective range  [1e+00, 1e+02]
  Bounds range     [1e+00, 1e+00]
  RHS range        [1e+00, 1e+00]
Presolve removed 2 rows and 36 columns
Presolve time: 0.00s
Presolved: 24 rows, 134 columns, 266 nonzeros
Variable types: 1 continuous, 133 integer (133 binary)

Root relaxation: objective 2.032888e+02, 20 iterations, 0.00 seconds

    Nodes    |    Current Node    |     Objective Bounds      |     Work
 Expl Unexpl |  Obj  Depth IntInf | Incumbent    BestBd   Gap | It/Node Time

     0     0  235.79773    0   19          -  235.79773      -     -    0s
H    0     0                     309.9044676  235.79773  23.9%     -    0s
     0     0  241.77612    0   26  309.90447  241.77612  22.0%     -    0s
     0     0  241.77612    0   26  309.90447  241.77612  22.0%     -    0s
     0     0  241.77612    0   26  309.90447  241.77612  22.0%     -    0s
     0     0  243.86666    0   26  309.90447  243.86666  21.3%     -    0s
     0     0  246.38160    0   15  309.90447  246.38160  20.5%     -    0s
     0     0  246.51519    0   28  309.90447  246.51519  20.5%     -    0s
     0     0  247.13034    0   11  309.90447  247.13034  20.3%     -    0s
     0     0  247.18717    0   15  309.90447  247.18717  20.2%     -    0s
     0     0  247.18717    0   15  309.90447  247.18717  20.2%     -    0s
     0     2  247.18717    0   15  309.90447  247.18717  20.2%     -    0s

Cutting planes:
  Gomory: 3
  Zero half: 1
  Mod-K: 1
  RLT: 1
  Lazy constraints: 339

Explored 1318 nodes (4201 simplex iterations) in 0.26 seconds
Thread count was 12 (of 12 available processors)

Solution count 1: 309.904 

Optimal solution found (tolerance 1.00e-04)
Best objective 3.099044676312e+02, best bound 3.099044676312e+02, gap 0.0000%

User-callback calls 3240, time in user-callback 0.02 sec
/projects/academic/josewalt/caigao/RRARP_BD/BendersDecomp/ret/model_outs/n_11_m_5_algo_2.out
 =====>>>>> Solution is written to file in <../ret/model_outs> !!!
===>> All Done!
